c Sudoku solution
p cnf 729 0
219 0
241 0
292 0
334 0
352 0
368 0
416 0
425 0
477 0
531 0
593 0
639 0
647 0
662 0
765 0
787 0
824 0
886 0
891 0
923 0
729 0
628 0
935 0
736 0
875 0
773 0
951 0
711 0
742 0
461 0
979 0
982 0
572 0
432 0
527 0
613 0
514 0
122 0
321 0
226 0
812 0
376 0
696 0
195 0
397 0
315 0
255 0
545 0
654 0
685 0
671 0
758 0
794 0
998 0
838 0
917 0
118 0
448 0
453 0
588 0
174 0
181 0
278 0
283 0
389 0
264 0
237 0
133 0
343 0
849 0
863 0
857 0
944 0
966 0
146 0
556 0
569 0
159 0
167 0
484 0
499 0
